20	5
0	8	7	2	8	1	3	6	4	5
1	1	16
2	1	21
3	1	20
4	1	11
5	1	15
6	1	21
7	1	9
8	1	10
9	1	14
10	1	20
11	1	18
12	2	11	20
13	1	19
14	2	12	13
15	2	19	12
16	1	17
17	1	21
18	2	2	21
19	1	21
20	1	21
21	0
0	0	0	0	0	0	0
1	6	1	3	1	1	5
2	9	3	2	0	2	3
3	10	2	1	3	4	1
4	2	5	0	3	5	4
5	10	3	3	3	1	5
6	9	4	5	4	3	3
7	9	0	0	0	5	1
8	7	3	2	3	0	5
9	4	0	1	2	4	4
10	8	0	3	0	3	0
11	5	3	2	4	0	4
12	2	3	1	4	3	1
13	1	5	0	5	0	5
14	7	0	1	1	0	0
15	1	2	2	0	1	3
16	9	4	5	4	3	2
17	10	5	0	0	5	1
18	9	5	1	0	0	0
19	2	1	5	3	3	0
20	6	0	0	2	3	3
21	0	0	0	0	0	0
11	9	9	12	11
